Gurobi 12.0.3:   lim:time = 14400
  mip:bestbound = 1
Set parameter LogToConsole to value 1
  tech:outlev = 1
Set parameter InfUnbdInfo to value 1
Gurobi Optimizer version 12.0.3 build v12.0.3rc0 (win64 - Windows 11.0 (26100.2))

CPU model: Intel(R) Xeon(R) Silver 4208 CPU @ 2.10GHz, instruction set [SSE2|AVX|AVX2|AVX512]
Thread count: 16 physical cores, 32 logical processors, using up to 32 threads

Non-default parameters:
TimeLimit  14400
InfUnbdInfo  1

Optimize a model with 315 rows, 476 columns and 2443 nonzeros
Model fingerprint: 0x25ef2b68
Model has 1 quadratic objective term
Model has 5 quadratic constraints
Variable types: 26 continuous, 450 integer (0 binary)
Coefficient statistics:
  Matrix range     [1e+00, 1e+05]
  QMatrix range    [1e+00, 1e+00]
  QLMatrix range   [1e+00, 2e+01]
  Objective range  [4e+00, 1e+02]
  QObjective range [1e+00, 1e+00]
  Bounds range     [1e+00, 1e+02]
  RHS range        [1e+00, 1e+05]
  QRHS range       [1e+02, 1e+02]
Presolve removed 24 rows and 25 columns
Presolve time: 0.04s
Presolved: 619 rows, 710 columns, 3621 nonzeros
Variable types: 50 continuous, 660 integer (625 binary)
Found heuristic solution: objective 392.4200000

Root relaxation: objective 1.391634e+02, 45 iterations, 0.00 seconds (0.00 work units)

    Nodes    |    Current Node    |     Objective Bounds      |     Work
 Expl Unexpl |  Obj  Depth IntInf | Incumbent    BestBd   Gap | It/Node Time

     0     0  139.16337    0   16  392.42000  139.16337  64.5%     -    0s
H    0     0                     274.6900000  139.16337  49.3%     -    0s
H    0     0                     249.3500000  139.16337  44.2%     -    0s
     0     0  190.29500    0   21  249.35000  190.29500  23.7%     -    0s
     0     0  198.68764    0   30  249.35000  198.68764  20.3%     -    0s
     0     0  202.57400    0   28  249.35000  202.57400  18.8%     -    0s
     0     0  211.13179    0   33  249.35000  211.13179  15.3%     -    0s
     0     0  211.49000    0   19  249.35000  211.49000  15.2%     -    0s
     0     0  211.49000    0   18  249.35000  211.49000  15.2%     -    0s
     0     0  211.49000    0   18  249.35000  211.49000  15.2%     -    0s
     0     0  211.49000    0   14  249.35000  211.49000  15.2%     -    0s
     0     0  211.49000    0   14  249.35000  211.49000  15.2%     -    0s
     0     0  211.49000    0   14  249.35000  211.49000  15.2%     -    0s
     0     0  211.49000    0   16  249.35000  211.49000  15.2%     -    0s
     0     0  211.49000    0   36  249.35000  211.49000  15.2%     -    0s
     0     0  211.49000    0   32  249.35000  211.49000  15.2%     -    0s
     0     0  211.49000    0   14  249.35000  211.49000  15.2%     -    0s
     0     0  211.49000    0   16  249.35000  211.49000  15.2%     -    0s
     0     0  211.49000    0   17  249.35000  211.49000  15.2%     -    0s
     0     0  211.49000    0   17  249.35000  211.49000  15.2%     -    0s
     0     0  211.49000    0   17  249.35000  211.49000  15.2%     -    0s
     0     0  211.49000    0   17  249.35000  211.49000  15.2%     -    0s
     0     2  211.49000    0   17  249.35000  211.49000  15.2%     -    0s
*   96    71               9     246.8500000  211.50689  14.3%  14.2    0s
*  237    74               8     242.9700000  211.50689  12.9%  10.8    1s

Cutting planes:
  Learned: 7
  Gomory: 6
  Cover: 2
  Implied bound: 6
  MIR: 7
  Inf proof: 4
  RLT: 22

Explored 501 nodes (4910 simplex iterations) in 1.10 seconds (0.32 work units)
Thread count was 32 (of 32 available processors)

Solution count 5: 242.97 246.85 249.35 ... 392.42

Optimal solution found (tolerance 1.00e-04)
Best objective 2.429700000000e+02, best bound 2.429700000000e+02, gap 0.0000%

AMPL MP initial flat model has 476 variables (0 integer, 450 binary);
Objectives: 1 quadratic; 
Constraints:  315 linear; 5 quadratic;

AMPL MP final model has 476 variables (0 integer, 450 binary);
Objectives: 1 quadratic; 
Constraints:  315 linear; 5 quadratic;


-----RESULTS INFO-----
running_time:  1.1720000000000002
TC.best_bound:  242.97
TC:  242.97
MIP Gap (%):  0
=== Vehicle Routes ===
Vehicle 1: 0 → 19
Vehicle 2: 0 → 19
Vehicle 3: 0 → 2
Vehicle 3: 1 → 11
Vehicle 3: 2 → 13
Vehicle 3: 3 → 19
Vehicle 3: 11 → 17
Vehicle 3: 13 → 1
Vehicle 3: 17 → 3

=== Full Vehicle Routes ===
Vehicle 1: 0 → 0 (0<100)
Vehicle 2: 0 → 0 (0<100)
Vehicle 3: 0 → 2 → 13 → 1 → 11 → 17 → 3 → 0 (96<100)
Arc used by MRT line: y variables:
MRT used: 13 → 12
Customer assigment to PL: u variables:
4 17
5 17
6 12
7 11
8 17
9 11
Node is served by regular vehicle: g variables:
1
2
3
17
11
13
Customer assigment to Home delivery: gm variables:
1
2
3
Node total demands: ntd variables:
1 4 1
2 20 1
3 2 1
7 0 0
8 0 0
9 0 0
16 0 0
17 37 1
18 0 0
10 0 0
11 24 1
12 0 0
13 9 1
14 0 0
15 0 0
Customer's demand delivered to PL: l variables:
4
5
6
7
8
9
Lockers load <= capacity:
0 <= 84
37 <= 77
0 <= 100
0 <= 97
24 <= 100
9 <= 74
0 <= 74
0 <= 99
0 <= 85
